 vasp.5.4.1 24Jun15 (build Nov 23 2015 09:58:10) complex

 executed on             LinuxIFC date 2019.12.30  11:39:15

 INCAR:
 POTCAR:    PAW_PBE Si 05Jan2001
 POTCAR:    PAW_PBE Si 05Jan2001
   VRHFIN =Si: s2p2

   TITEL  = PAW_PBE Si 05Jan2001
   POMASS =   28.085; ZVAL   =    4.000    mass and valenz
   ENMAX  =  245.345; ENMIN  =  184.009 eV

 Optimization of the real space projectors (new method)

 maximal supplied QI-value         = 19.84
 optimisation between [QCUT,QGAM] = [ 11.51, 23.22] = [ 37.09,150.92] Ry
 Optimized for a Real-space Cutoff    1.21 Angstroem

   l    n(q)    QCUT    max X(q) W(low)/X(q) W(high)/X(q)  e(spline)
   0      8    11.508   159.560    0.71E-04    0.15E-03    0.51E-07
   0      8    11.508   115.863    0.70E-04    0.15E-03    0.51E-07
   1      8    11.508    88.339    0.16E-03    0.38E-04    0.82E-07
   1      8    11.508    48.592    0.15E-03    0.36E-04    0.79E-07
  PAW_PBE Si 05Jan2001                  :

 POSCAR: Si8
  positions in direct lattice
  velocities in cartesian coordinates
 exchange correlation table for  LEXCH =        8
   RHO(1)=    0.500       N(1)  =     2000
   RHO(2)=  100.500       N(2)  =     4000

 ion  position               nearest neighbor table
   1  0.250  0.250  0.250-   2 2.37   4 2.37   6 2.37   8 2.37
   2  0.000  0.500  0.500-   1 2.37   3 2.37   5 2.37   7 2.37
   3  0.250  0.750  0.750-   2 2.37   4 2.37   6 2.37   8 2.37
   4  0.000  0.000  0.000-   1 2.37   3 2.37   5 2.37   7 2.37
   5  0.750  0.250  0.750-   2 2.37   4 2.37   6 2.37   8 2.37
   6  0.500  0.500  0.000-   1 2.37   3 2.37   5 2.37   7 2.37
   7  0.750  0.750  0.250-   2 2.37   4 2.37   6 2.37   8 2.37
   8  0.500  0.000  0.500-   1 2.37   3 2.37   5 2.37   7 2.37

  LATTYP: Found a simple cubic cell.
 ALAT       =     5.4695450000

  Lattice vectors:

 A1 = (   5.4695450000,   0.0000000000,   0.0000000000)
 A2 = (   0.0000000000,   5.4695450000,   0.0000000000)
 A3 = (   0.0000000000,   0.0000000000,   5.4695450000)

Analysis of symmetry for initial positions (statically):
 Subroutine PRICEL returns following result:

  LATTYP: Found a face centered cubic cell.
 ALAT       =     5.4695450000

[...]

   4 primitive cells build up your supercell.

 Routine SETGRP: Setting up the symmetry group for a
 simple cubic supercell.

 Subroutine GETGRP returns: Found 48 space group operations
 (whereof 24 operations were pure point group operations)
 out of a pool of 48 trial point group operations.

The static configuration has the point symmetry T_d .
 The point group associated with its full space group is O_h .

Analysis of symmetry for dynamics (positions and initial velocities):
 Subroutine PRICEL returns following result:

  LATTYP: Found a face centered cubic cell.
 ALAT       =     5.4695450000

  Lattice vectors:

 A1 = (   2.7347725000,   2.7347725000,   0.0000000000)
 A2 = (   2.7347725000,   0.0000000000,  -2.7347725000)
 A3 = (   0.0000000000,   2.7347725000,  -2.7347725000)

   4 primitive cells build up your supercell.

 Routine SETGRP: Setting up the symmetry group for a
 simple cubic supercell.

 Subroutine GETGRP returns: Found 48 space group operations
 (whereof 24 operations were pure point group operations)
 out of a pool of 48 trial point group operations.

The dynamic configuration has the point symmetry T_d .
 The point group associated with its full space group is O_h .

 KPOINTS: K-Mesh Generated with KP-Resolved Value

Automatic generation of k-mesh.
Space group operators:
 irot       det(A)        alpha          n_x          n_y          n_z        tau_x        tau_y        tau_z
    1     1.000000     0.000000     1.000000     0.000000     0.000000     0.000000     0.000000    -0.000000
    2     1.000000   120.000000    -0.577350    -0.577350    -0.577350     0.000000     0.000000    -0.000000
    3     1.000000   120.000000     0.577350     0.577350     0.577350     0.000000     0.000000    -0.000000
    4    -1.000000    90.000000     0.000000     0.000000    -1.000000     0.000000     0.000000    -0.000000
    5    -1.000000   180.000000     0.000000     0.707107     0.707107     0.000000     0.000000    -0.000000
    6    -1.000000    90.000000     0.000000     1.000000     0.000000     0.000000     0.000000    -0.000000
    7     1.000000   180.000000     0.000000     0.000000     1.000000     0.000000     0.000000    -0.000000
    8     1.000000   120.000000    -0.577350     0.577350     0.577350     0.000000     0.000000    -0.000000
    9     1.000000   120.000000    -0.577350     0.577350    -0.577350     0.000000     0.000000    -0.000000
   10    -1.000000    90.000000     0.000000     0.000000     1.000000     0.000000     0.000000    -0.000000
   11    -1.000000    90.000000    -1.000000     0.000000     0.000000     0.000000     0.000000    -0.000000
   12    -1.000000   180.000000     0.707107     0.000000     0.707107     0.000000     0.000000    -0.000000
   13     1.000000   120.000000     0.577350    -0.577350     0.577350     0.000000     0.000000    -0.000000
   14     1.000000   120.000000    -0.577350    -0.577350     0.577350     0.000000     0.000000    -0.000000
   15     1.000000   180.000000     1.000000     0.000000     0.000000     0.000000     0.000000    -0.000000
   16    -1.000000    90.000000     0.000000    -1.000000     0.000000     0.000000     0.000000    -0.000000
   17    -1.000000   180.000000     0.707107     0.707107     0.000000     0.000000     0.000000    -0.000000
   18    -1.000000    90.000000     1.000000     0.000000     0.000000     0.000000     0.000000    -0.000000
   19     1.000000   120.000000     0.577350    -0.577350    -0.577350     0.000000     0.000000    -0.000000
   20     1.000000   180.000000     0.000000     1.000000     0.000000     0.000000     0.000000    -0.000000
   21     1.000000   120.000000     0.577350     0.577350    -0.577350     0.000000     0.000000    -0.000000
   22    -1.000000   180.000000     0.000000    -0.707107     0.707107     0.000000     0.000000    -0.000000
   23    -1.000000   180.000000     0.707107    -0.707107     0.000000     0.000000     0.000000    -0.000000
   24    -1.000000   180.000000     0.707107     0.000000    -0.707107     0.000000     0.000000    -0.000000
   25    -1.000000     0.000000     1.000000     0.000000     0.000000     0.750000     0.750000    -0.750000
   26    -1.000000   120.000000    -0.577350    -0.577350    -0.577350     0.750000     0.750000    -0.750000
   27    -1.000000   120.000000     0.577350     0.577350     0.577350     0.750000     0.750000    -0.750000
   28     1.000000    90.000000     0.000000     0.000000    -1.000000     0.750000     0.750000    -0.750000
   29     1.000000   180.000000     0.000000     0.707107     0.707107     0.750000     0.750000    -0.750000
   30     1.000000    90.000000     0.000000     1.000000     0.000000     0.750000     0.750000    -0.750000
   31    -1.000000   180.000000     0.000000     0.000000     1.000000     0.750000     0.750000    -0.750000
   32    -1.000000   120.000000    -0.577350     0.577350     0.577350     0.750000     0.750000    -0.750000
   33    -1.000000   120.000000    -0.577350     0.577350    -0.577350     0.750000     0.750000    -0.750000
   34     1.000000    90.000000     0.000000     0.000000     1.000000     0.750000     0.750000    -0.750000
   35     1.000000    90.000000    -1.000000     0.000000     0.000000     0.750000     0.750000    -0.750000
   36     1.000000   180.000000     0.707107     0.000000     0.707107     0.750000     0.750000    -0.750000
   37    -1.000000   120.000000     0.577350    -0.577350     0.577350     0.750000     0.750000    -0.750000
   38    -1.000000   120.000000    -0.577350    -0.577350     0.577350     0.750000     0.750000    -0.750000
   39    -1.000000   180.000000     1.000000     0.000000     0.000000     0.750000     0.750000    -0.750000
   40     1.000000    90.000000     0.000000    -1.000000     0.000000     0.750000     0.750000    -0.750000
   41     1.000000   180.000000     0.707107     0.707107     0.000000     0.750000     0.750000    -0.750000
   42     1.000000    90.000000     1.000000     0.000000     0.000000     0.750000     0.750000    -0.750000
   43    -1.000000   120.000000     0.577350    -0.577350    -0.577350     0.750000     0.750000    -0.750000
   44    -1.000000   180.000000     0.000000     1.000000     0.000000     0.750000     0.750000    -0.750000
   45    -1.000000   120.000000     0.577350     0.577350    -0.577350     0.750000     0.750000    -0.750000
   46     1.000000   180.000000     0.000000    -0.707107     0.707107     0.750000     0.750000    -0.750000
   47     1.000000   180.000000     0.707107    -0.707107     0.000000     0.750000     0.750000    -0.750000
   48     1.000000   180.000000     0.707107     0.000000    -0.707107     0.750000     0.750000    -0.750000

 Subroutine IBZKPT returns following result:

 Found     10 irreducible k-points:

 Following reciprocal coordinates:
            Coordinates               Weight
  0.000000  0.000000  0.000000      1.000000
  0.200000  0.000000  0.000000      6.000000
  0.400000  0.000000  0.000000      6.000000
  0.200000  0.200000  0.000000     12.000000
  0.400000  0.200000  0.000000     24.000000
  0.400000  0.400000  0.000000     12.000000
  0.200000  0.200000  0.200000      8.000000
  0.400000  0.200000  0.200000     24.000000
  0.400000  0.400000  0.200000     24.000000
  0.400000  0.400000  0.400000      8.000000

 Following cartesian coordinates:
            Coordinates               Weight
  0.000000  0.000000  0.000000      1.000000
  0.036566  0.000000  0.000000      6.000000
  0.073132  0.000000  0.000000      6.000000
  0.036566  0.036566  0.000000     12.000000
  0.073132  0.036566  0.000000     24.000000
  0.073132  0.073132  0.000000     12.000000
  0.036566  0.036566  0.036566      8.000000
  0.073132  0.036566  0.036566     24.000000
  0.073132  0.073132  0.036566     24.000000
  0.073132  0.073132  0.073132      8.000000

 TETIRR: Found     57 inequivalent tetrahedra from      750

 I would recommend the setting:
   dimension x,y,z NGX =    41 NGY =   41 NGZ =   41
 SYSTEM =  unknown system
 POSCAR =  Si8

 Startparameter for this run:
   NWRITE =      2    write-flag & timer
   PREC   = accura    normal or accurate (medium, high low for compatibility)
   ISTART =      0    job   : 0-new  1-cont  2-samecut
   ICHARG =      2    charge: 1-file 2-atom 10-const
   ISPIN  =      1    spin polarized calculation?
   LNONCOLLINEAR =      F non collinear calculations
   LSORBIT =      F    spin-orbit coupling
   INIWAV =      1    electr: 0-lowe 1-rand  2-diag
   LASPH  =      F    aspherical Exc in radial PAW
   METAGGA=      F    non-selfconsistent MetaGGA calc.

 Electronic Relaxation 1
   ENCUT  =  520.0 eV  38.22 Ry    6.18 a.u.  10.17 10.17 10.17*2*pi/ulx,y,z
   ENINI  =  520.0     initial cutoff
   ENAUG  =  322.1 eV  augmentation charge cutoff
   NELM   =     60;   NELMIN=  6; NELMDL= -5     # of ELM steps
   EDIFF  = 0.1E-04   stopping-criterion for ELM
   LREAL  =      T    real-space projection
   NLSPLINE    = F    spline interpolate recip. space projectors
[...]
     WC   =   100.;   INIMIX=   1;  MIXPRE=   1;  MAXMIX= -45

 Intra band minimization:
   WEIMIN = 0.0010     energy-eigenvalue tresh-hold
   EBREAK =  0.10E-06  absolut break condition
   DEPER  =   0.30     relativ break condition

   TIME   =   0.40     timestep for ELM

  volume/ion in A,a.u.               =      20.45       138.03
  Fermi-wavevector in a.u.,A,eV,Ry     =   0.950255  1.795722 12.285858  0.902985
  Thomas-Fermi vector in A             =   2.078615

 Write flags
   LWAVE  =      F    write WAVECAR
   LCHARG =      F    write CHGCAR
   LVTOT  =      F    write LOCPOT, total local potential
   LVHAR  =      F    write LOCPOT, Hartree potential only
   LELF   =      F    write electronic localiz. function (ELF)
   LORBIT =      0    0 simple, 1 ext, 2 COOP (PROOUT)

 Dipole corrections
   LMONO  =      F    monopole corrections only (constant potential shift)
   LDIPOL =      F    correct potential (dipole corrections)
   IDIPOL =      0    1-x, 2-y, 3-z, 4-all directions
   EPSILON=  1.0000000 bulk dielectric constant

 Exchange correlation treatment:
   GGA     =    --    GGA type
   VOSKOWN=      0    Vosko Wilk Nusair interpolation
   LHFCALC =     F    Hartree Fock is set to
   LHFONE  =     F    Hartree Fock one center treatment
   AEXX    =    0.0000 exact exchange contribution

 Linear response parameters
   LEPSILON=     F    determine dielectric tensor
   LRPA    =     F    only Hartree local field effects (RPA)
   LNABLA  =     F    use nabla operator in PAW spheres
   LVEL    =     F    velocity operator in full k-point grid
   LINTERFAST=   F  fast interpolation
   KINTER  =     0    interpolate to denser k-point grid
   CSHIFT  =0.1000    complex shift for real part using Kramers Kronig
   OMEGAMAX=  -1.0    maximum frequency
   DEG_THRESHOLD= 0.2000000E-02 threshold for treating states as degnerate
   RTIME   =    0.100 relaxation time in fs

 Orbital magnetization related:
   ORBITALMAG=     F  switch on orbital magnetization
   LCHIMAG   =     F  perturbation theory with respect to B field
   DQ        =  0.001000  dq finite difference perturbation B field

 conjugate gradient relaxation of ions
 charge density and potential will be updated during run
 non-spin polarized calculation
 RMM-DIIS sequential band-by-band and
  variant of blocked Davidson during initial phase
 perform sub-space diagonalisation
    before iterative eigenvector-optimisation
 modified Broyden-mixing scheme, WC =      100.0
 initial mixing is a Kerker type mixing with AMIX =  0.4000 and BMIX =      1.0000
 Hartree-type preconditioning will be used
 using additional bands            8
 real space projection scheme for non local part
 use partial core corrections
 calculate Harris-corrections to forces
   (improved forces if not selfconsistent)
 use gradient corrections
 use of overlap-Matrix (Vanderbilt PP)
 Fermi weights with tetrahedron method with Bloechl corrections

  energy-cutoff  :      520.00
  volume of cell :      163.63
      direct lattice vectors                 reciprocal lattice vectors
     5.469545000  0.000000000  0.000000000     0.182830565  0.000000000  0.000000000
     0.000000000  5.469545000  0.000000000     0.000000000  0.182830565  0.000000000
     0.000000000  0.000000000  5.469545000     0.000000000  0.000000000  0.182830565

  length of vectors
     5.469545000  5.469545000  5.469545000     0.182830565  0.182830565  0.182830565

 k-points in units of 2pi/SCALE and weight: K-Mesh Generated with KP-Resolved Value
   0.00000000  0.00000000  0.00000000       0.008
   0.03656611  0.00000000  0.00000000       0.048
   0.07313223  0.00000000  0.00000000       0.048
   0.03656611  0.03656611  0.00000000       0.096
   0.07313223  0.03656611  0.00000000       0.192
   0.07313223  0.07313223  0.00000000       0.096
   0.03656611  0.03656611  0.03656611       0.064
   0.07313223  0.03656611  0.03656611       0.192
   0.07313223  0.07313223  0.03656611       0.192
   0.07313223  0.07313223  0.07313223       0.064

 k-points in reciprocal lattice and weights: K-Mesh Generated with KP-Resolved Value
   0.00000000  0.00000000  0.00000000       0.008
   0.20000000  0.00000000  0.00000000       0.048
   0.40000000  0.00000000  0.00000000       0.048
   0.20000000  0.20000000  0.00000000       0.096
   0.40000000  0.20000000  0.00000000       0.192
   0.40000000  0.40000000  0.00000000       0.096
   0.20000000  0.20000000  0.20000000       0.064
   0.40000000  0.20000000  0.20000000       0.192
   0.40000000  0.40000000  0.20000000       0.192
   0.40000000  0.40000000  0.40000000       0.064

 position of ions in fractional coordinates (direct lattice)
   0.25000000  0.25000000  0.25000000
   0.00000000  0.50000000  0.50000000
   0.25000000  0.75000000  0.75000000
   0.00000000  0.00000000  0.00000000
   0.75000000  0.25000000  0.75000000
   0.50000000  0.50000000  0.00000000
   0.75000000  0.75000000  0.25000000
   0.50000000  0.00000000  0.50000000

 position of ions in cartesian coordinates  (Angst):
   1.36738625  1.36738625  1.36738625
   0.00000000  2.73477250  2.73477250
   1.36738625  4.10215875  4.10215875
   0.00000000  0.00000000  0.00000000
   4.10215875  1.36738625  4.10215875
   2.73477250  2.73477250  0.00000000
   4.10215875  4.10215875  1.36738625
   2.73477250  0.00000000  2.73477250

 k-point  1 :   0.0000 0.0000 0.0000  plane waves:    4385
 k-point  2 :   0.2000 0.0000 0.0000  plane waves:    4396
 k-point  3 :   0.4000 0.0000 0.0000  plane waves:    4408
 k-point  4 :   0.2000 0.2000 0.0000  plane waves:    4402
 k-point  5 :   0.4000 0.2000 0.0000  plane waves:    4407
 k-point  6 :   0.4000 0.4000 0.0000  plane waves:    4412
 k-point  7 :   0.2000 0.2000 0.2000  plane waves:    4404
 k-point  8 :   0.4000 0.2000 0.2000  plane waves:    4393
 k-point  9 :   0.4000 0.4000 0.2000  plane waves:    4415
 k-point 10 :   0.4000 0.4000 0.4000  plane waves:    4416

 maximum and minimum number of plane-waves per node :       749      717

 maximum number of plane-waves:      4416
 maximum index in each direction:
   IXMAX=   10   IYMAX=   10   IZMAX=   10
   IXMIN=  -10   IYMIN=  -10   IZMIN=  -10

 NGX is ok and might be reduce to  42
 NGY is ok and might be reduce to  42
 NGZ is ok and might be reduce to  42

 real space projection operators:
  max/ min on nodes  :        269.38        266.75

 parallel 3D FFT for wavefunctions:
    minimum data exchange during FFTs selected (reduces bandwidth)
 parallel 3D FFT for charge:
    minimum data exchange during FFTs selected (reduces bandwidth)

 Broyden mixing: mesh for mixing (old mesh)
   NGX = 21   NGY = 21   NGZ = 21
  (NGX  = 84   NGY  = 84   NGZ  = 84)
  gives a total of   9261 points

 initial charge density was supplied:
 charge density of overlapping atoms calculated
 number of electron      32.0000000 magnetization
 keeping initial charge density in first step

 Maximum index for non-local projection operator          552
 Maximum index for augmentation-charges         5079 (set IRDMAX)

 First call to EWALD:  gamma=   0.324
 Maximum number of real-space cells 3x 3x 3
 Maximum number of reciprocal cells 3x 3x 3

 FEWALD executed in parallel

----------------------------------------- Iteration    1(   1)  ---------------------------------------

 BZINTS: Fermi energy: 11.481372; 32.000000 electrons
         Band energy: 118.495022;  BLOECHL correction: -0.068908

 eigenvalue-minimisations  :   480
 total energy-change (2. order) : 0.6922633E+02  (-0.1190916E+04)
 number of electron      32.0000000 magnetization
 augmentation part       32.0000000 magnetization

 Free energy of the ion-electron system (eV)
  alpha Z        PSCENC =        13.16681942
  Ewald energy   TEWEN  =      -907.64404347
  -Hartree energ DENC   =       -45.32085545
  -exchange      EXHF   =         0.00000000
  -V(xc)+E(xc)   XCENC  =       -74.74767724
  PAW double counting   =       704.99039692     -564.24414232
  entropy T*S    EENTRO =         0.00000000
  eigenvalues    EBANDS =       118.49502245
  atomic energy  EATOM  =       824.53081094
  Solvation  Ediel_sol  =         0.00000000
  free energy    TOTEN  =        69.22633124 eV

  energy without entropy =       69.22633124  energy(sigma->0) =       69.22633124

[...]

 eigenvalue-minimisations  :   632
 total energy-change (2. order) :-0.1081974E+03  (-0.9950742E+02)
 number of electron      32.0000000 magnetization
 augmentation part       32.0000000 magnetization

[...]

 Broyden mixing:
  rms(total) = 0.95045E+00    rms(broyden)= 0.95045E+00
  rms(prec ) = 0.13253E+01
  weight for this iteration     100.00

[...]

 eigenvalues of (default mixing * dielectric matrix)
  average eigenvalue GAMMA=   2.5658
  2.5658

[...]

 eigenvalue-minimisations  :   486
 total energy-change (2. order) :-0.1435558E-03  (-0.2753762E-04)
 number of electron      32.0000000 magnetization
 augmentation part       -1.8329190 magnetization

 Broyden mixing:
  rms(total) = 0.12458E-02    rms(broyden)= 0.12458E-02
  rms(prec ) = 0.18308E-02
  weight for this iteration     100.00

 eigenvalues of (default mixing * dielectric matrix)
  average eigenvalue GAMMA=   2.0069
  3.0716  2.5228  2.3354  0.9832  1.1212

[...]

----------------------------------------- Iteration    1(  11)  ---------------------------------------

 BZINTS: Fermi energy:  5.634362; 32.000000 electrons
         Band energy:  19.583864;  BLOECHL correction:  0.000000

 eigenvalue-minimisations  :   351
 total energy-change (2. order) : 0.6262535E-06  (-0.2628473E-05)
 number of electron      32.0000000 magnetization
 augmentation part       -1.8329190 magnetization

 Free energy of the ion-electron system (eV)
  alpha Z        PSCENC =        13.16681942
  Ewald energy   TEWEN  =      -907.64404347
  -Hartree energ DENC   =       -60.71256563
  -exchange      EXHF   =         0.00000000
  -V(xc)+E(xc)   XCENC  =       -72.24954830
  PAW double counting   =      3319.15866807    -3179.23282736
  entropy T*S    EENTRO =         0.00000000
  eigenvalues    EBANDS =        19.58386354
  atomic energy  EATOM  =       824.53081094
  Solvation  Ediel_sol  =         0.00000000
  free energy    TOTEN  =       -43.39882280 eV

  energy without entropy =      -43.39882280  energy(sigma->0) =      -43.39882280

 average (electrostatic) potential at core
  the test charge radii are     0.9892
  (the norm of the test charge is              1.0000)
       1 -83.4881       2 -83.4881       3 -83.4881       4 -83.4881       5 -83.4881
       6 -83.4881       7 -83.4881       8 -83.4881

 E-fermi :   5.6344     XC(G=0):  -9.3256     alpha+bet :-11.7265

 k-point     1 :       0.0000    0.0000    0.0000
  band No.  band energies     occupation
      1      -6.2003      2.00000
      2      -2.1333      2.00000
      3      -2.1333      2.00000
      4      -2.1333      2.00000
      5      -2.1333      2.00000
      6      -2.1333      2.00000
      7      -2.1333      2.00000
      8       2.8188      2.00000
      9       2.8188      2.00000
     10       2.8188      2.00000
     11       2.8188      2.00000
     12       2.8188      2.00000
     13       2.8188      2.00000
     14       5.6116      2.00000
     15       5.6116      2.00000
     16       5.6116      2.00000
     17       6.3641      0.00000
     18       6.3641      0.00000
     19       6.3641      0.00000
     20       6.3641      0.00000
     21       6.3641      0.00000
     22       6.3641      0.00000
     23       8.1684      0.00000
     24       8.1684      0.00000

[...]

 k-point    10 :       0.4000    0.4000    0.4000
  band No.  band energies     occupation
      1      -4.3600      2.00000
      2      -3.8679      2.00000
      3      -3.8679      2.00000
      4      -3.8679      2.00000
      5      -1.1158      2.00000
      6      -1.1158      2.00000
      7      -1.1158      2.00000
      8      -0.5749      2.00000
      9       3.6647      2.00000
     10       3.6647      2.00000
     11       3.6647      2.00000
     12       4.1942      2.00000
     13       4.1942      2.00000
     14       4.1942      2.00000
     15       4.5045      2.00000
     16       4.5045      2.00000
     17       7.1590      0.00000
     18       7.7076      0.00000
     19       7.7076      0.00000
     20       7.7076      0.00000
     21       8.9221      0.00000
     22       8.9222      0.00000
     23       8.9248      0.00000
     24       9.0326      0.00000

 soft charge-density along one line, spin component           1
         0         1         2         3         4         5         6         7         8         9
 total charge-density along one line

------------------------ aborting loop because EDIFF is reached ----------------------------------------

  FORCE on cell =-STRESS in cart. coord.  units (eV):
  Direction    XX          YY          ZZ          XY          YZ          ZX
  Alpha Z    13.16682    13.16682    13.16682
  Ewald    -302.54853  -302.54853  -302.54853     0.00000    -0.00000     0.00000
  Hartree    20.24212    20.24212    20.24212    -0.00000    -0.00000    -0.00000
  E(xc)    -100.97465  -100.97465  -100.97465     0.00000     0.00000    -0.00000
  Local    -118.07164  -118.07164  -118.07164     0.00000    -0.00000    -0.00000
  n-local   309.75296   312.85737   306.83705    -3.14570    -1.94161    -1.57304
  augment   -46.58959   -46.58959   -46.58959    -0.00000    -0.00000     0.00000
  Kinetic   218.35679   228.96854   227.59399    -4.14948    -4.20838    -2.67881
  Fock        0.00000     0.00000     0.00000     0.00000     0.00000     0.00000
  Total       0.01343     0.01343     0.01343     0.00000     0.00000    -0.00000
  in kB       0.13149     0.13149     0.13149     0.00000     0.00000    -0.00000

 VOLUME and BASIS-vectors are now :
  energy-cutoff  :      520.00
  volume of cell :      163.63
      direct lattice vectors                 reciprocal lattice vectors
     5.469545000  0.000000000  0.000000000     0.182830565  0.000000000  0.000000000
     0.000000000  5.469545000  0.000000000     0.000000000  0.182830565  0.000000000
     0.000000000  0.000000000  5.469545000     0.000000000  0.000000000  0.182830565

  length of vectors
     5.469545000  5.469545000  5.469545000     0.182830565  0.182830565  0.182830565

 FORCES acting on ions
    electron-ion (+dipol)            ewald-force                    non-local-force                 convergence-correction
   -.650E-14 0.932E-13 -.177E-12   -.320E-13 -.355E-14 -.355E-14   0.520E-17 -.260E-17 -.252E-16   0.626E-14 -.226E-14 -.677E-14
   -.110E-13 -.142E-13 -.411E-14   -.137E-13 -.328E-14 0.107E-13   0.156E-16 -.260E-16 0.156E-16   -.351E-14 0.362E-14 -.512E-14
   -.260E-14 0.609E-13 -.193E-12   -.178E-13 0.000E+00 0.000E+00   -.382E-16 -.156E-16 -.234E-16   0.599E-14 0.409E-14 0.770E-14
   -.974E-14 -.407E-15 0.740E-14   0.323E-15 -.965E-17 0.144E-13   0.217E-16 -.568E-16 0.147E-16   -.441E-14 0.151E-14 0.358E-14
   -.156E-13 -.485E-12 -.438E-13   -.355E-14 0.000E+00 -.142E-13   -.243E-16 0.121E-16 -.165E-16   0.274E-14 -.238E-14 0.832E-14
   -.162E-13 -.234E-12 0.273E-12   0.178E-13 0.489E-15 0.170E-15   -.147E-16 -.304E-17 0.252E-16   -.216E-14 0.351E-14 0.360E-14
   -.779E-14 0.118E-12 -.584E-12   0.107E-13 0.355E-14 -.107E-13   -.451E-16 0.390E-16 -.182E-16   0.225E-14 0.487E-14 -.697E-14
   -.266E-13 -.181E-14 0.741E-13   0.320E-13 0.356E-14 0.352E-14   0.243E-16 -.607E-17 0.173E-16   -.212E-14 0.123E-14 -.581E-14
   -.961E-13 -.463E-12 -.647E-12   -.627E-14 0.761E-15 0.306E-15   -.555E-16 -.590E-16 -.104E-16   0.504E-14 0.142E-13 -.147E-14

 POSITION                                       TOTAL-FORCE (eV/Angst)
      1.36739      1.36739      1.36739        -0.000000     -0.000000     -0.000000
      0.00000      2.73477      2.73477        -0.000000      0.000000      0.000000
      1.36739      4.10216      4.10216         0.000000      0.000000     -0.000000
      0.00000      0.00000      0.00000         0.000000     -0.000000      0.000000
      4.10216      1.36739      4.10216         0.000000     -0.000000     -0.000000
      2.73477      2.73477      0.00000        -0.000000      0.000000      0.000000
      4.10216      4.10216      1.36739        -0.000000     -0.000000     -0.000000
      2.73477      0.00000      2.73477        -0.000000     -0.000000      0.000000
    total drift:                               -0.000000     -0.000000     -0.000000

  FREE ENERGIE OF THE ION-ELECTRON SYSTEM (eV)
  free  energy   TOTEN  =       -43.39882280 eV

  energy  without entropy=      -43.39882280  energy(sigma->0) =      -43.39882280

 reached required accuracy - stopping structural energy minimisation
 BZINTS: Fermi energy:  5.634362; 32.000000 electrons
         Band energy:  19.583864;  BLOECHL correction:  0.000000